31850 31040 1 2 3 5 6 7 8 9 10 11 12 13 16 17 18 19 21 22 23 24 25 26 27 28 29 30 31 32 33 34 35 36 37 38 39 40 41 43 44 47 49 50 51 52 55 57 58 59 60 62 63 65 66 67 68 69 70 72 73 74 75 76 77 78 81 82 83 84 85 86 89 90 91 92 93 94 95 96 97 99 100 